p cnf 962 2469
51 -2 -695 0
-51 2 0
-51 695 0
52 -51 -3 0
-52 51 0
-52 3 0
53 -696 -4 0
-53 696 0
-53 4 0
54 -53 -6 0
-54 53 0
-54 6 0
55 -697 -698 0
-55 697 0
-55 698 0
56 -7 -695 0
-56 7 0
-56 695 0
57 -56 -699 0
-57 56 0
-57 699 0
58 -700 -55 0
-58 700 0
-58 55 0
59 -701 -702 0
-59 701 0
-59 702 0
60 -59 -11 0
-60 59 0
-60 11 0
61 -703 -58 0
-61 703 0
-61 58 0
62 -13 -12 0
-62 13 0
-62 12 0
63 -62 -14 0
-63 62 0
-63 14 0
64 -704 -61 0
-64 704 0
-64 61 0
65 -705 -706 0
-65 705 0
-65 706 0
66 -65 -707 0
-66 65 0
-66 707 0
67 -708 -64 0
-67 708 0
-67 64 0
68 -709 -696 0
-68 709 0
-68 696 0
69 -68 -710 0
-69 68 0
-69 710 0
70 -711 -67 0
-70 711 0
-70 67 0
71 -21 -712 0
-71 21 0
-71 712 0
72 -71 -22 0
-72 71 0
-72 22 0
73 -713 -70 0
-73 713 0
-73 70 0
74 -714 -715 0
-74 714 0
-74 715 0
75 -74 -716 0
-75 74 0
-75 716 0
76 -717 -73 0
-76 717 0
-76 73 0
77 -718 -5 0
-77 718 0
-77 5 0
78 -77 -719 0
-78 77 0
-78 719 0
79 -720 -76 0
-79 720 0
-79 76 0
80 -17 -701 0
-80 17 0
-80 701 0
81 -80 -26 0
-81 80 0
-81 26 0
82 -721 -79 0
-82 721 0
-82 79 0
83 -718 -722 0
-83 718 0
-83 722 0
84 -83 -723 0
-84 83 0
-84 723 0
85 -724 -82 0
-85 724 0
-85 82 0
86 -29 -725 0
-86 29 0
-86 725 0
87 -86 -726 0
-87 86 0
-87 726 0
88 -727 -85 0
-88 727 0
-88 85 0
89 -30 -728 0
-89 30 0
-89 728 0
90 -89 -31 0
-90 89 0
-90 31 0
91 -729 -88 0
-91 729 0
-91 88 0
92 -709 -705 0
-92 709 0
-92 705 0
93 -92 -17 0
-93 92 0
-93 17 0
94 -730 -91 0
-94 730 0
-94 91 0
95 -731 -24 0
-95 731 0
-95 24 0
96 -95 -31 0
-96 95 0
-96 31 0
97 -732 -94 0
-97 732 0
-97 94 0
98 -21 -722 0
-98 21 0
-98 722 0
99 -98 -710 0
-99 98 0
-99 710 0
100 -733 -97 0
-100 733 0
-100 97 0
101 -34 -734 0
-101 34 0
-101 734 0
102 -101 -26 0
-102 101 0
-102 26 0
103 -735 -100 0
-103 735 0
-103 100 0
104 -723 -16 0
-104 723 0
-104 16 0
105 -104 -26 0
-105 104 0
-105 26 0
106 -736 -103 0
-106 736 0
-106 103 0
107 -4 -2 0
-107 4 0
-107 2 0
108 -107 -737 0
-108 107 0
-108 737 0
109 -738 -106 0
-109 738 0
-109 106 0
110 -20 -706 0
-110 20 0
-110 706 0
111 -110 -719 0
-111 110 0
-111 719 0
112 -739 -109 0
-112 739 0
-112 109 0
113 -9 -4 0
-113 9 0
-113 4 0
114 -113 -26 0
-114 113 0
-114 26 0
115 -740 -112 0
-115 740 0
-115 112 0
116 -36 -725 0
-116 36 0
-116 725 0
117 -116 -13 0
-117 116 0
-117 13 0
118 -741 -115 0
-118 741 0
-118 115 0
119 -742 -743 0
-119 742 0
-119 743 0
120 -119 -38 0
-120 119 0
-120 38 0
121 -744 -118 0
-121 744 0
-121 118 0
122 -39 -706 0
-122 39 0
-122 706 0
123 -122 -40 0
-123 122 0
-123 40 0
124 -745 -121 0
-124 745 0
-124 121 0
125 -746 -715 0
-125 746 0
-125 715 0
126 -125 -40 0
-126 125 0
-126 40 0
127 -747 -124 0
-127 747 0
-127 124 0
128 -41 -746 0
-128 41 0
-128 746 0
129 -128 -743 0
-129 128 0
-129 743 0
130 -748 -127 0
-130 748 0
-130 127 0
131 -28 -749 0
-131 28 0
-131 749 0
132 -131 -750 0
-132 131 0
-132 750 0
133 -751 -130 0
-133 751 0
-133 130 0
134 -42 -709 0
-134 42 0
-134 709 0
135 -134 -710 0
-135 134 0
-135 710 0
136 -752 -133 0
-136 752 0
-136 133 0
137 -753 -746 0
-137 753 0
-137 746 0
138 -137 -1 0
-138 137 0
-138 1 0
139 -754 -136 0
-139 754 0
-139 136 0
140 -725 -4 0
-140 725 0
-140 4 0
141 -140 -699 0
-141 140 0
-141 699 0
142 -755 -139 0
-142 755 0
-142 139 0
143 -43 -19 0
-143 43 0
-143 19 0
144 -143 -13 0
-144 143 0
-144 13 0
145 -756 -142 0
-145 756 0
-145 142 0
146 -709 -15 0
-146 709 0
-146 15 0
147 -146 -16 0
-147 146 0
-147 16 0
148 -757 -145 0
-148 757 0
-148 145 0
149 -44 -702 0
-149 44 0
-149 702 0
150 -149 -29 0
-150 149 0
-150 29 0
151 -758 -148 0
-151 758 0
-151 148 0
152 -759 -760 0
-152 759 0
-152 760 0
153 -152 -761 0
-153 152 0
-153 761 0
154 -762 -151 0
-154 762 0
-154 151 0
155 -763 -706 0
-155 763 0
-155 706 0
156 -155 -17 0
-156 155 0
-156 17 0
157 -764 -154 0
-157 764 0
-157 154 0
158 -24 -765 0
-158 24 0
-158 765 0
159 -158 -47 0
-159 158 0
-159 47 0
160 -766 -157 0
-160 766 0
-160 157 0
161 -710 -5 0
-161 710 0
-161 5 0
162 -161 -750 0
-162 161 0
-162 750 0
163 -767 -160 0
-163 767 0
-163 160 0
164 -24 -709 0
-164 24 0
-164 709 0
165 -164 -32 0
-165 164 0
-165 32 0
166 -768 -163 0
-166 768 0
-166 163 0
167 -45 -769 0
-167 45 0
-167 769 0
168 -167 -770 0
-168 167 0
-168 770 0
169 -771 -166 0
-169 771 0
-169 166 0
170 -36 -718 0
-170 36 0
-170 718 0
171 -170 -48 0
-171 170 0
-171 48 0
172 -772 -169 0
-172 772 0
-172 169 0
173 -12 -5 0
-173 12 0
-173 5 0
174 -173 -770 0
-174 173 0
-174 770 0
175 -773 -172 0
-175 773 0
-175 172 0
176 -45 -723 0
-176 45 0
-176 723 0
177 -176 -774 0
-177 176 0
-177 774 0
178 -775 -175 0
-178 775 0
-178 175 0
179 -42 -32 0
-179 42 0
-179 32 0
180 -179 -759 0
-180 179 0
-180 759 0
181 -776 -178 0
-181 776 0
-181 178 0
182 -25 -22 0
-182 25 0
-182 22 0
183 -182 -48 0
-183 182 0
-183 48 0
184 -777 -181 0
-184 777 0
-184 181 0
185 -43 -34 0
-185 43 0
-185 34 0
186 -185 -40 0
-186 185 0
-186 40 0
187 -778 -184 0
-187 778 0
-187 184 0
188 -722 -765 0
-188 722 0
-188 765 0
189 -188 -726 0
-189 188 0
-189 726 0
190 -779 -187 0
-190 779 0
-190 187 0
191 -11 -7 0
-191 11 0
-191 7 0
192 -191 -14 0
-192 191 0
-192 14 0
193 -780 -190 0
-193 780 0
-193 190 0
194 -35 -781 0
-194 35 0
-194 781 0
195 -194 -770 0
-195 194 0
-195 770 0
196 -782 -193 0
-196 782 0
-196 193 0
197 -43 -5 0
-197 43 0
-197 5 0
198 -197 -726 0
-198 197 0
-198 726 0
199 -783 -196 0
-199 783 0
-199 196 0
200 -784 -47 0
-200 784 0
-200 47 0
201 -200 -770 0
-201 200 0
-201 770 0
202 -785 -199 0
-202 785 0
-202 199 0
203 -723 -5 0
-203 723 0
-203 5 0
204 -203 -41 0
-204 203 0
-204 41 0
205 -786 -202 0
-205 786 0
-205 202 0
206 -763 -707 0
-206 763 0
-206 707 0
207 -206 -31 0
-207 206 0
-207 31 0
208 -787 -205 0
-208 787 0
-208 205 0
209 -32 -774 0
-209 32 0
-209 774 0
210 -209 -31 0
-210 209 0
-210 31 0
211 -788 -208 0
-211 788 0
-211 208 0
212 -742 -36 0
-212 742 0
-212 36 0
213 -212 -3 0
-213 212 0
-213 3 0
214 -789 -211 0
-214 789 0
-214 211 0
215 -715 -4 0
-215 715 0
-215 4 0
216 -215 -12 0
-216 215 0
-216 12 0
217 -790 -214 0
-217 790 0
-217 214 0
218 -10 -7 0
-218 10 0
-218 7 0
219 -218 -21 0
-219 218 0
-219 21 0
220 -791 -217 0
-220 791 0
-220 217 0
221 -32 -709 0
-221 32 0
-221 709 0
222 -221 -734 0
-222 221 0
-222 734 0
223 -792 -220 0
-223 792 0
-223 220 0
224 -5 -4 0
-224 5 0
-224 4 0
225 -224 -793 0
-225 224 0
-225 793 0
226 -794 -223 0
-226 794 0
-226 223 0
227 -28 -22 0
-227 28 0
-227 22 0
228 -227 -17 0
-228 227 0
-228 17 0
229 -795 -226 0
-229 795 0
-229 226 0
230 -760 -769 0
-230 760 0
-230 769 0
231 -230 -8 0
-231 230 0
-231 8 0
232 -796 -229 0
-232 796 0
-232 229 0
233 -742 -710 0
-233 742 0
-233 710 0
234 -233 -17 0
-234 233 0
-234 17 0
235 -797 -232 0
-235 797 0
-235 232 0
236 -743 -2 0
-236 743 0
-236 2 0
237 -236 -40 0
-237 236 0
-237 40 0
238 -798 -235 0
-238 798 0
-238 235 0
239 -46 -696 0
-239 46 0
-239 696 0
240 -239 -35 0
-240 239 0
-240 35 0
241 -799 -238 0
-241 799 0
-241 238 0
242 -42 -37 0
-242 42 0
-242 37 0
243 -242 -743 0
-243 242 0
-243 743 0
244 -800 -241 0
-244 800 0
-244 241 0
245 -728 -710 0
-245 728 0
-245 710 0
246 -245 -38 0
-246 245 0
-246 38 0
247 -801 -244 0
-247 801 0
-247 244 0
248 -49 -28 0
-248 49 0
-248 28 0
249 -248 -728 0
-249 248 0
-249 728 0
250 -802 -247 0
-250 802 0
-250 247 0
251 -125 -750 0
-251 125 0
-251 750 0
252 -803 -250 0
-252 803 0
-252 250 0
253 -804 -28 0
-253 804 0
-253 28 0
254 -253 -33 0
-254 253 0
-254 33 0
255 -805 -252 0
-255 805 0
-255 252 0
256 -723 -23 0
-256 723 0
-256 23 0
257 -256 -13 0
-257 256 0
-257 13 0
258 -806 -255 0
-258 806 0
-258 255 0
259 -753 -18 0
-259 753 0
-259 18 0
260 -259 -35 0
-260 259 0
-260 35 0
261 -807 -258 0
-261 807 0
-261 258 0
262 -50 -728 0
-262 50 0
-262 728 0
263 -262 -769 0
-263 262 0
-263 769 0
264 -808 -261 0
-264 808 0
-264 261 0
265 -714 -20 0
-265 714 0
-265 20 0
266 -265 -705 0
-266 265 0
-266 705 0
267 -809 -264 0
-267 809 0
-267 264 0
268 -784 -765 0
-268 784 0
-268 765 0
269 -268 -770 0
-269 268 0
-269 770 0
270 -810 -267 0
-270 810 0
-270 267 0
271 -742 -769 0
-271 742 0
-271 769 0
272 -271 -774 0
-272 271 0
-272 774 0
273 -811 -270 0
-273 811 0
-273 270 0
274 -723 -1 0
-274 723 0
-274 1 0
275 -274 -716 0
-275 274 0
-275 716 0
276 -812 -273 0
-276 812 0
-276 273 0
277 -28 -719 0
-277 28 0
-277 719 0
278 -277 -770 0
-278 277 0
-278 770 0
279 -813 -276 0
-279 813 0
-279 276 0
280 -50 -716 0
-280 50 0
-280 716 0
281 -280 -13 0
-281 280 0
-281 13 0
282 -814 -279 0
-282 814 0
-282 279 0
283 -746 -712 0
-283 746 0
-283 712 0
284 -283 -13 0
-284 283 0
-284 13 0
285 -815 -282 0
-285 815 0
-285 282 0
286 -27 -715 0
-286 27 0
-286 715 0
287 -286 -816 0
-287 286 0
-287 816 0
288 -817 -285 0
-288 817 0
-288 285 0
289 -696 -1 0
-289 696 0
-289 1 0
290 -289 -47 0
-290 289 0
-290 47 0
291 -818 -288 0
-291 818 0
-291 288 0
292 -760 -32 0
-292 760 0
-292 32 0
293 -292 -759 0
-293 292 0
-293 759 0
294 -819 -291 0
-294 819 0
-294 291 0
295 -42 -30 0
-295 42 0
-295 30 0
296 -295 -8 0
-296 295 0
-296 8 0
297 -820 -294 0
-297 820 0
-297 294 0
298 -30 -5 0
-298 30 0
-298 5 0
299 -298 -750 0
-299 298 0
-299 750 0
300 -821 -297 0
-300 821 0
-300 297 0
301 -19 -726 0
-301 19 0
-301 726 0
302 -301 -822 0
-302 301 0
-302 822 0
303 -823 -300 0
-303 823 0
-303 300 0
304 -742 -23 0
-304 742 0
-304 23 0
305 -304 -21 0
-305 304 0
-305 21 0
306 -824 -303 0
-306 824 0
-306 303 0
307 -23 -1 0
-307 23 0
-307 1 0
308 -307 -699 0
-308 307 0
-308 699 0
309 -825 -306 0
-309 825 0
-309 306 0
310 -826 -6 0
-310 826 0
-310 6 0
311 -310 -16 0
-311 310 0
-311 16 0
312 -827 -309 0
-312 827 0
-312 309 0
313 -828 -765 0
-313 828 0
-313 765 0
314 -313 -774 0
-314 313 0
-314 774 0
315 -829 -312 0
-315 829 0
-315 312 0
316 -48 -709 0
-316 48 0
-316 709 0
317 -316 -13 0
-317 316 0
-317 13 0
318 -830 -315 0
-318 830 0
-318 315 0
319 -793 -12 0
-319 793 0
-319 12 0
320 -319 -3 0
-320 319 0
-320 3 0
321 -831 -318 0
-321 831 0
-321 318 0
322 -32 -20 0
-322 32 0
-322 20 0
323 -322 -17 0
-323 322 0
-323 17 0
324 -832 -321 0
-324 832 0
-324 321 0
325 -50 -21 0
-325 50 0
-325 21 0
326 -325 -12 0
-326 325 0
-326 12 0
327 -833 -324 0
-327 833 0
-327 324 0
328 -37 -731 0
-328 37 0
-328 731 0
329 -328 -48 0
-329 328 0
-329 48 0
330 -834 -327 0
-330 834 0
-330 327 0
331 -11 -702 0
-331 11 0
-331 702 0
332 -331 -17 0
-332 331 0
-332 17 0
333 -835 -330 0
-333 835 0
-333 330 0
334 -719 -696 0
-334 719 0
-334 696 0
335 -334 -39 0
-335 334 0
-335 39 0
336 -836 -333 0
-336 836 0
-336 333 0
337 -763 -765 0
-337 763 0
-337 765 0
338 -337 -750 0
-338 337 0
-338 750 0
339 -837 -336 0
-339 837 0
-339 336 0
340 -42 -15 0
-340 42 0
-340 15 0
341 -340 -38 0
-341 340 0
-341 38 0
342 -838 -339 0
-342 838 0
-342 339 0
343 -839 -49 0
-343 839 0
-343 49 0
344 -343 -750 0
-344 343 0
-344 750 0
345 -840 -342 0
-345 840 0
-345 342 0
346 -719 -707 0
-346 719 0
-346 707 0
347 -346 -26 0
-347 346 0
-347 26 0
348 -841 -345 0
-348 841 0
-348 345 0
349 -842 -696 0
-349 842 0
-349 696 0
350 -349 -731 0
-350 349 0
-350 731 0
351 -843 -348 0
-351 843 0
-351 348 0
352 -49 -48 0
-352 49 0
-352 48 0
353 -352 -822 0
-353 352 0
-353 822 0
354 -844 -351 0
-354 844 0
-354 351 0
355 -48 -705 0
-355 48 0
-355 705 0
356 -355 -8 0
-356 355 0
-356 8 0
357 -845 -354 0
-357 845 0
-357 354 0
358 -784 -715 0
-358 784 0
-358 715 0
359 -358 -38 0
-359 358 0
-359 38 0
360 -846 -357 0
-360 846 0
-360 357 0
361 -24 -2 0
-361 24 0
-361 2 0
362 -361 -26 0
-362 361 0
-362 26 0
363 -847 -360 0
-363 847 0
-363 360 0
364 -24 -706 0
-364 24 0
-364 706 0
365 -364 -848 0
-365 364 0
-365 848 0
366 -849 -363 0
-366 849 0
-366 363 0
367 -753 -4 0
-367 753 0
-367 4 0
368 -367 -793 0
-368 367 0
-368 793 0
369 -850 -366 0
-369 850 0
-369 366 0
370 -28 -716 0
-370 28 0
-370 716 0
371 -370 -31 0
-371 370 0
-371 31 0
372 -851 -369 0
-372 851 0
-372 369 0
373 -11 -4 0
-373 11 0
-373 4 0
374 -373 -1 0
-374 373 0
-374 1 0
375 -852 -372 0
-375 852 0
-375 372 0
376 -839 -44 0
-376 839 0
-376 44 0
377 -376 -26 0
-377 376 0
-377 26 0
378 -853 -375 0
-378 853 0
-378 375 0
379 -761 -737 0
-379 761 0
-379 737 0
380 -379 -848 0
-380 379 0
-380 848 0
381 -854 -378 0
-381 854 0
-381 378 0
382 -50 -2 0
-382 50 0
-382 2 0
383 -382 -750 0
-383 382 0
-383 750 0
384 -855 -381 0
-384 855 0
-384 381 0
385 -41 -7 0
-385 41 0
-385 7 0
386 -385 -719 0
-386 385 0
-386 719 0
387 -856 -384 0
-387 856 0
-387 384 0
388 -42 -5 0
-388 42 0
-388 5 0
389 -388 -695 0
-389 388 0
-389 695 0
390 -857 -387 0
-390 857 0
-390 387 0
391 -753 -816 0
-391 753 0
-391 816 0
392 -391 -737 0
-392 391 0
-392 737 0
393 -858 -390 0
-393 858 0
-393 390 0
394 -10 -715 0
-394 10 0
-394 715 0
395 -394 -3 0
-395 394 0
-395 3 0
396 -859 -393 0
-396 859 0
-396 393 0
397 -28 -710 0
-397 28 0
-397 710 0
398 -397 -8 0
-398 397 0
-398 8 0
399 -860 -396 0
-399 860 0
-399 396 0
400 -42 -696 0
-400 42 0
-400 696 0
401 -400 -25 0
-401 400 0
-401 25 0
402 -861 -399 0
-402 861 0
-402 399 0
403 -709 -722 0
-403 709 0
-403 722 0
404 -403 -46 0
-404 403 0
-404 46 0
405 -862 -402 0
-405 862 0
-405 402 0
406 -816 -718 0
-406 816 0
-406 718 0
407 -406 -750 0
-407 406 0
-407 750 0
408 -863 -405 0
-408 863 0
-408 405 0
409 -74 -16 0
-409 74 0
-409 16 0
410 -864 -408 0
-410 864 0
-410 408 0
411 -816 -712 0
-411 816 0
-411 712 0
412 -411 -761 0
-412 411 0
-412 761 0
413 -865 -410 0
-413 865 0
-413 410 0
414 -49 -25 0
-414 49 0
-414 25 0
415 -414 -8 0
-415 414 0
-415 8 0
416 -866 -413 0
-416 866 0
-416 413 0
417 -51 -761 0
-417 51 0
-417 761 0
418 -867 -416 0
-418 867 0
-418 416 0
419 -761 -41 0
-419 761 0
-419 41 0
420 -419 -770 0
-420 419 0
-420 770 0
421 -868 -418 0
-421 868 0
-421 418 0
422 -37 -695 0
-422 37 0
-422 695 0
423 -422 -33 0
-423 422 0
-423 33 0
424 -869 -421 0
-424 869 0
-424 421 0
425 -12 -10 0
-425 12 0
-425 10 0
426 -425 -737 0
-426 425 0
-426 737 0
427 -870 -424 0
-427 870 0
-427 424 0
428 -734 -696 0
-428 734 0
-428 696 0
429 -428 -743 0
-429 428 0
-429 743 0
430 -871 -427 0
-430 871 0
-430 427 0
431 -716 -715 0
-431 716 0
-431 715 0
432 -431 -793 0
-432 431 0
-432 793 0
433 -872 -430 0
-433 872 0
-433 430 0
434 -32 -722 0
-434 32 0
-434 722 0
435 -434 -46 0
-435 434 0
-435 46 0
436 -873 -433 0
-436 873 0
-436 433 0
437 -718 -9 0
-437 718 0
-437 9 0
438 -437 -27 0
-438 437 0
-438 27 0
439 -874 -436 0
-439 874 0
-439 436 0
440 -715 -5 0
-440 715 0
-440 5 0
441 -440 -8 0
-441 440 0
-441 8 0
442 -875 -439 0
-442 875 0
-442 439 0
443 -753 -1 0
-443 753 0
-443 1 0
444 -443 -848 0
-444 443 0
-444 848 0
445 -876 -442 0
-445 876 0
-445 442 0
446 -41 -22 0
-446 41 0
-446 22 0
447 -446 -726 0
-447 446 0
-447 726 0
448 -877 -445 0
-448 877 0
-448 445 0
449 -710 -696 0
-449 710 0
-449 696 0
450 -449 -25 0
-450 449 0
-450 25 0
451 -878 -448 0
-451 878 0
-451 448 0
452 -29 -24 0
-452 29 0
-452 24 0
453 -452 -699 0
-453 452 0
-453 699 0
454 -879 -451 0
-454 879 0
-454 451 0
455 -746 -29 0
-455 746 0
-455 29 0
456 -455 -38 0
-456 455 0
-456 38 0
457 -880 -454 0
-457 880 0
-457 454 0
458 -37 -712 0
-458 37 0
-458 712 0
459 -458 -50 0
-459 458 0
-459 50 0
460 -881 -457 0
-460 881 0
-460 457 0
461 -728 -11 0
-461 728 0
-461 11 0
462 -461 -707 0
-462 461 0
-462 707 0
463 -882 -460 0
-463 882 0
-463 460 0
464 -826 -21 0
-464 826 0
-464 21 0
465 -464 -707 0
-465 464 0
-465 707 0
466 -883 -463 0
-466 883 0
-466 463 0
467 -816 -24 0
-467 816 0
-467 24 0
468 -467 -44 0
-468 467 0
-468 44 0
469 -884 -466 0
-469 884 0
-469 466 0
470 -49 -714 0
-470 49 0
-470 714 0
471 -470 -749 0
-471 470 0
-471 749 0
472 -885 -469 0
-472 885 0
-472 469 0
473 -33 -714 0
-473 33 0
-473 714 0
474 -473 -31 0
-474 473 0
-474 31 0
475 -886 -472 0
-475 886 0
-475 472 0
476 -45 -781 0
-476 45 0
-476 781 0
477 -476 -699 0
-477 476 0
-477 699 0
478 -887 -475 0
-478 887 0
-478 475 0
479 -23 -701 0
-479 23 0
-479 701 0
480 -479 -765 0
-480 479 0
-480 765 0
481 -888 -478 0
-481 888 0
-481 478 0
482 -760 -842 0
-482 760 0
-482 842 0
483 -482 -699 0
-483 482 0
-483 699 0
484 -889 -481 0
-484 889 0
-484 481 0
485 -828 -46 0
-485 828 0
-485 46 0
486 -485 -848 0
-486 485 0
-486 848 0
487 -890 -484 0
-487 890 0
-487 484 0
488 -110 -23 0
-488 110 0
-488 23 0
489 -891 -487 0
-489 891 0
-489 487 0
490 -718 -15 0
-490 718 0
-490 15 0
491 -490 -743 0
-491 490 0
-491 743 0
492 -892 -489 0
-492 892 0
-492 489 0
493 -34 -18 0
-493 34 0
-493 18 0
494 -493 -8 0
-494 493 0
-494 8 0
495 -893 -492 0
-495 893 0
-495 492 0
496 -822 -5 0
-496 822 0
-496 5 0
497 -496 -769 0
-497 496 0
-497 769 0
498 -894 -495 0
-498 894 0
-498 495 0
499 -734 -23 0
-499 734 0
-499 23 0
500 -499 -8 0
-500 499 0
-500 8 0
501 -895 -498 0
-501 895 0
-501 498 0
502 -32 -714 0
-502 32 0
-502 714 0
503 -502 -39 0
-503 502 0
-503 39 0
504 -896 -501 0
-504 896 0
-504 501 0
505 -897 -822 0
-505 897 0
-505 822 0
506 -505 -699 0
-506 505 0
-506 699 0
507 -898 -504 0
-507 898 0
-507 504 0
508 -295 -38 0
-508 295 0
-508 38 0
509 -899 -507 0
-509 899 0
-509 507 0
510 -29 -22 0
-510 29 0
-510 22 0
511 -510 -14 0
-511 510 0
-511 14 0
512 -900 -509 0
-512 900 0
-512 509 0
513 -42 -1 0
-513 42 0
-513 1 0
514 -513 -13 0
-514 513 0
-514 13 0
515 -901 -512 0
-515 901 0
-515 512 0
516 -706 -11 0
-516 706 0
-516 11 0
517 -516 -17 0
-517 516 0
-517 17 0
518 -902 -515 0
-518 902 0
-518 515 0
519 -725 -715 0
-519 725 0
-519 715 0
520 -519 -32 0
-520 519 0
-520 32 0
521 -903 -518 0
-521 903 0
-521 518 0
522 -715 -722 0
-522 715 0
-522 722 0
523 -522 -816 0
-523 522 0
-523 816 0
524 -904 -521 0
-524 904 0
-524 521 0
525 -822 -8 0
-525 822 0
-525 8 0
526 -525 -46 0
-526 525 0
-526 46 0
527 -905 -524 0
-527 905 0
-527 524 0
528 -712 -709 0
-528 712 0
-528 709 0
529 -528 -826 0
-529 528 0
-529 826 0
530 -906 -527 0
-530 906 0
-530 527 0
531 -41 -714 0
-531 41 0
-531 714 0
532 -531 -49 0
-532 531 0
-532 49 0
533 -907 -530 0
-533 907 0
-533 530 0
534 -34 -715 0
-534 34 0
-534 715 0
535 -534 -16 0
-535 534 0
-535 16 0
536 -908 -533 0
-536 908 0
-536 533 0
537 -33 -25 0
-537 33 0
-537 25 0
538 -537 -770 0
-538 537 0
-538 770 0
539 -909 -536 0
-539 909 0
-539 536 0
540 -36 -4 0
-540 36 0
-540 4 0
541 -540 -38 0
-541 540 0
-541 38 0
542 -910 -539 0
-542 910 0
-542 539 0
543 -784 -33 0
-543 784 0
-543 33 0
544 -543 -848 0
-544 543 0
-544 848 0
545 -911 -542 0
-545 911 0
-545 542 0
546 -21 -707 0
-546 21 0
-546 707 0
547 -546 -774 0
-547 546 0
-547 774 0
548 -912 -545 0
-548 912 0
-548 545 0
549 -746 -10 0
-549 746 0
-549 10 0
550 -549 -726 0
-550 549 0
-550 726 0
551 -913 -548 0
-551 913 0
-551 548 0
552 -48 -765 0
-552 48 0
-552 765 0
553 -552 -13 0
-553 552 0
-553 13 0
554 -914 -551 0
-554 914 0
-554 551 0
555 -731 -11 0
-555 731 0
-555 11 0
556 -555 -3 0
-556 555 0
-556 3 0
557 -915 -554 0
-557 915 0
-557 554 0
558 -425 -13 0
-558 425 0
-558 13 0
559 -916 -557 0
-559 916 0
-559 557 0
560 -746 -1 0
-560 746 0
-560 1 0
561 -560 -719 0
-561 560 0
-561 719 0
562 -917 -559 0
-562 917 0
-562 559 0
563 -22 -5 0
-563 22 0
-563 5 0
564 -563 -48 0
-564 563 0
-564 48 0
565 -918 -562 0
-565 918 0
-565 562 0
566 -25 -712 0
-566 25 0
-566 712 0
567 -566 -3 0
-567 566 0
-567 3 0
568 -919 -565 0
-568 919 0
-568 565 0
569 -759 -23 0
-569 759 0
-569 23 0
570 -569 -25 0
-570 569 0
-570 25 0
571 -920 -568 0
-571 920 0
-571 568 0
572 -718 -18 0
-572 718 0
-572 18 0
573 -572 -828 0
-573 572 0
-573 828 0
574 -921 -571 0
-574 921 0
-574 571 0
575 -29 -21 0
-575 29 0
-575 21 0
576 -575 -47 0
-576 575 0
-576 47 0
577 -922 -574 0
-577 922 0
-577 574 0
578 -734 -816 0
-578 734 0
-578 816 0
579 -578 -22 0
-579 578 0
-579 22 0
580 -923 -577 0
-580 923 0
-580 577 0
581 -753 -36 0
-581 753 0
-581 36 0
582 -581 -705 0
-582 581 0
-582 705 0
583 -924 -580 0
-583 924 0
-583 580 0
584 -760 -1 0
-584 760 0
-584 1 0
585 -584 -31 0
-585 584 0
-585 31 0
586 -925 -583 0
-586 925 0
-586 583 0
587 -761 -723 0
-587 761 0
-587 723 0
588 -587 -737 0
-588 587 0
-588 737 0
589 -926 -586 0
-589 926 0
-589 586 0
590 -15 -769 0
-590 15 0
-590 769 0
591 -590 -40 0
-591 590 0
-591 40 0
592 -927 -589 0
-592 927 0
-592 589 0
593 -43 -718 0
-593 43 0
-593 718 0
594 -593 -31 0
-594 593 0
-594 31 0
595 -928 -592 0
-595 928 0
-595 592 0
596 -32 -723 0
-596 32 0
-596 723 0
597 -596 -49 0
-597 596 0
-597 49 0
598 -929 -595 0
-598 929 0
-598 595 0
599 -49 -719 0
-599 49 0
-599 719 0
600 -599 -17 0
-600 599 0
-600 17 0
601 -930 -598 0
-601 930 0
-601 598 0
602 -8 -842 0
-602 8 0
-602 842 0
603 -602 -46 0
-603 602 0
-603 46 0
604 -931 -601 0
-604 931 0
-604 601 0
605 -42 -706 0
-605 42 0
-605 706 0
606 -605 -726 0
-606 605 0
-606 726 0
607 -932 -604 0
-607 932 0
-607 604 0
608 -737 -10 0
-608 737 0
-608 10 0
609 -608 -750 0
-609 608 0
-609 750 0
610 -933 -607 0
-610 933 0
-610 607 0
611 -701 -5 0
-611 701 0
-611 5 0
612 -611 -13 0
-612 611 0
-612 13 0
613 -934 -610 0
-613 934 0
-613 610 0
614 -34 -749 0
-614 34 0
-614 749 0
615 -614 -3 0
-615 614 0
-615 3 0
616 -935 -613 0
-616 935 0
-616 613 0
617 -710 -8 0
-617 710 0
-617 8 0
618 -617 -40 0
-618 617 0
-618 40 0
619 -936 -616 0
-619 936 0
-619 616 0
620 -804 -33 0
-620 804 0
-620 33 0
621 -620 -47 0
-621 620 0
-621 47 0
622 -937 -619 0
-622 937 0
-622 619 0
623 -537 -848 0
-623 537 0
-623 848 0
624 -938 -622 0
-624 938 0
-624 622 0
625 -21 -15 0
-625 21 0
-625 15 0
626 -625 -699 0
-626 625 0
-626 699 0
627 -939 -624 0
-627 939 0
-627 624 0
628 -749 -710 0
-628 749 0
-628 710 0
629 -628 -50 0
-629 628 0
-629 50 0
630 -940 -627 0
-630 940 0
-630 627 0
631 -39 -26 0
-631 39 0
-631 26 0
632 -631 -770 0
-632 631 0
-632 770 0
633 -941 -630 0
-633 941 0
-633 630 0
634 -710 -17 0
-634 710 0
-634 17 0
635 -634 -699 0
-635 634 0
-635 699 0
636 -942 -633 0
-636 942 0
-636 633 0
637 -35 -8 0
-637 35 0
-637 8 0
638 -637 -3 0
-638 637 0
-638 3 0
639 -943 -636 0
-639 943 0
-639 636 0
640 -816 -27 0
-640 816 0
-640 27 0
641 -640 -22 0
-641 640 0
-641 22 0
642 -944 -639 0
-642 944 0
-642 639 0
643 -746 -731 0
-643 746 0
-643 731 0
644 -643 -40 0
-644 643 0
-644 40 0
645 -945 -642 0
-645 945 0
-645 642 0
646 -714 -5 0
-646 714 0
-646 5 0
647 -646 -31 0
-647 646 0
-647 31 0
648 -946 -645 0
-648 946 0
-648 645 0
649 -71 -48 0
-649 71 0
-649 48 0
650 -947 -648 0
-650 947 0
-650 648 0
651 -22 -749 0
-651 22 0
-651 749 0
652 -651 -705 0
-652 651 0
-652 705 0
653 -948 -650 0
-653 948 0
-653 650 0
654 -753 -26 0
-654 753 0
-654 26 0
655 -654 -761 0
-655 654 0
-655 761 0
656 -949 -653 0
-656 949 0
-656 653 0
657 -716 -6 0
-657 716 0
-657 6 0
658 -657 -699 0
-658 657 0
-658 699 0
659 -950 -656 0
-659 950 0
-659 656 0
660 -760 -816 0
-660 760 0
-660 816 0
661 -660 -38 0
-661 660 0
-661 38 0
662 -951 -659 0
-662 951 0
-662 659 0
663 -24 -707 0
-663 24 0
-663 707 0
664 -663 -770 0
-664 663 0
-664 770 0
665 -952 -662 0
-665 952 0
-665 662 0
666 -188 -707 0
-666 188 0
-666 707 0
667 -953 -665 0
-667 953 0
-667 665 0
668 -725 -765 0
-668 725 0
-668 765 0
669 -668 -16 0
-669 668 0
-669 16 0
670 -954 -667 0
-670 954 0
-670 667 0
671 -44 -749 0
-671 44 0
-671 749 0
672 -671 -46 0
-672 671 0
-672 46 0
673 -955 -670 0
-673 955 0
-673 670 0
674 -27 -774 0
-674 27 0
-674 774 0
675 -674 -761 0
-675 674 0
-675 761 0
676 -956 -673 0
-676 956 0
-676 673 0
677 -32 -7 0
-677 32 0
-677 7 0
678 -677 -774 0
-678 677 0
-678 774 0
679 -957 -676 0
-679 957 0
-679 676 0
680 -29 -19 0
-680 29 0
-680 19 0
681 -680 -770 0
-681 680 0
-681 770 0
682 -958 -679 0
-682 958 0
-682 679 0
683 -826 -14 0
-683 826 0
-683 14 0
684 -683 -774 0
-684 683 0
-684 774 0
685 -959 -682 0
-685 959 0
-685 682 0
686 -705 -765 0
-686 705 0
-686 765 0
687 -686 -793 0
-687 686 0
-687 793 0
688 -960 -685 0
-688 960 0
-688 685 0
689 -781 -715 0
-689 781 0
-689 715 0
690 -689 -45 0
-690 689 0
-690 45 0
691 -961 -688 0
-691 961 0
-691 688 0
692 -28 -774 0
-692 28 0
-692 774 0
693 -692 -31 0
-693 692 0
-693 31 0
694 -962 -691 0
-694 962 0
-694 691 0
-695 -1 0
695 1 0
-696 -5 0
696 5 0
-697 -54 0
697 54 0
-698 -52 0
698 52 0
-699 -8 0
699 8 0
-700 -57 0
700 57 0
-701 -10 0
701 10 0
-702 -9 0
702 9 0
-703 -60 0
703 60 0
-704 -63 0
704 63 0
-705 -16 0
705 16 0
-706 -15 0
706 15 0
-707 -17 0
707 17 0
-708 -66 0
708 66 0
-709 -18 0
709 18 0
-710 -19 0
710 19 0
-711 -69 0
711 69 0
-712 -20 0
712 20 0
-713 -72 0
713 72 0
-714 -23 0
714 23 0
-715 -6 0
715 6 0
-716 -22 0
716 22 0
-717 -75 0
717 75 0
-718 -24 0
718 24 0
-719 -25 0
719 25 0
-720 -78 0
720 78 0
-721 -81 0
721 81 0
-722 -4 0
722 4 0
-723 -27 0
723 27 0
-724 -84 0
724 84 0
-725 -28 0
725 28 0
-726 -13 0
726 13 0
-727 -87 0
727 87 0
-728 -29 0
728 29 0
-729 -90 0
729 90 0
-730 -93 0
730 93 0
-731 -32 0
731 32 0
-732 -96 0
732 96 0
-733 -99 0
733 99 0
-734 -33 0
734 33 0
-735 -102 0
735 102 0
-736 -105 0
736 105 0
-737 -35 0
737 35 0
-738 -108 0
738 108 0
-739 -111 0
739 111 0
-740 -114 0
740 114 0
-741 -117 0
741 117 0
-742 -37 0
742 37 0
-743 -12 0
743 12 0
-744 -120 0
744 120 0
-745 -123 0
745 123 0
-746 -36 0
746 36 0
-747 -126 0
747 126 0
-748 -129 0
748 129 0
-749 -21 0
749 21 0
-750 -31 0
750 31 0
-751 -132 0
751 132 0
-752 -135 0
752 135 0
-753 -41 0
753 41 0
-754 -138 0
754 138 0
-755 -141 0
755 141 0
-756 -144 0
756 144 0
-757 -147 0
757 147 0
-758 -150 0
758 150 0
-759 -45 0
759 45 0
-760 -43 0
760 43 0
-761 -46 0
761 46 0
-762 -153 0
762 153 0
-763 -44 0
763 44 0
-764 -156 0
764 156 0
-765 -2 0
765 2 0
-766 -159 0
766 159 0
-767 -162 0
767 162 0
-768 -165 0
768 165 0
-769 -14 0
769 14 0
-770 -3 0
770 3 0
-771 -168 0
771 168 0
-772 -171 0
772 171 0
-773 -174 0
773 174 0
-774 -26 0
774 26 0
-775 -177 0
775 177 0
-776 -180 0
776 180 0
-777 -183 0
777 183 0
-778 -186 0
778 186 0
-779 -189 0
779 189 0
-780 -192 0
780 192 0
-781 -11 0
781 11 0
-782 -195 0
782 195 0
-783 -198 0
783 198 0
-784 -49 0
784 49 0
-785 -201 0
785 201 0
-786 -204 0
786 204 0
-787 -207 0
787 207 0
-788 -210 0
788 210 0
-789 -213 0
789 213 0
-790 -216 0
790 216 0
-791 -219 0
791 219 0
-792 -222 0
792 222 0
-793 -39 0
793 39 0
-794 -225 0
794 225 0
-795 -228 0
795 228 0
-796 -231 0
796 231 0
-797 -234 0
797 234 0
-798 -237 0
798 237 0
-799 -240 0
799 240 0
-800 -243 0
800 243 0
-801 -246 0
801 246 0
-802 -249 0
802 249 0
-803 -251 0
803 251 0
-804 -42 0
804 42 0
-805 -254 0
805 254 0
-806 -257 0
806 257 0
-807 -260 0
807 260 0
-808 -263 0
808 263 0
-809 -266 0
809 266 0
-810 -269 0
810 269 0
-811 -272 0
811 272 0
-812 -275 0
812 275 0
-813 -278 0
813 278 0
-814 -281 0
814 281 0
-815 -284 0
815 284 0
-816 -30 0
816 30 0
-817 -287 0
817 287 0
-818 -290 0
818 290 0
-819 -293 0
819 293 0
-820 -296 0
820 296 0
-821 -299 0
821 299 0
-822 -38 0
822 38 0
-823 -302 0
823 302 0
-824 -305 0
824 305 0
-825 -308 0
825 308 0
-826 -34 0
826 34 0
-827 -311 0
827 311 0
-828 -47 0
828 47 0
-829 -314 0
829 314 0
-830 -317 0
830 317 0
-831 -320 0
831 320 0
-832 -323 0
832 323 0
-833 -326 0
833 326 0
-834 -329 0
834 329 0
-835 -332 0
835 332 0
-836 -335 0
836 335 0
-837 -338 0
837 338 0
-838 -341 0
838 341 0
-839 -50 0
839 50 0
-840 -344 0
840 344 0
-841 -347 0
841 347 0
-842 -7 0
842 7 0
-843 -350 0
843 350 0
-844 -353 0
844 353 0
-845 -356 0
845 356 0
-846 -359 0
846 359 0
-847 -362 0
847 362 0
-848 -40 0
848 40 0
-849 -365 0
849 365 0
-850 -368 0
850 368 0
-851 -371 0
851 371 0
-852 -374 0
852 374 0
-853 -377 0
853 377 0
-854 -380 0
854 380 0
-855 -383 0
855 383 0
-856 -386 0
856 386 0
-857 -389 0
857 389 0
-858 -392 0
858 392 0
-859 -395 0
859 395 0
-860 -398 0
860 398 0
-861 -401 0
861 401 0
-862 -404 0
862 404 0
-863 -407 0
863 407 0
-864 -409 0
864 409 0
-865 -412 0
865 412 0
-866 -415 0
866 415 0
-867 -417 0
867 417 0
-868 -420 0
868 420 0
-869 -423 0
869 423 0
-870 -426 0
870 426 0
-871 -429 0
871 429 0
-872 -432 0
872 432 0
-873 -435 0
873 435 0
-874 -438 0
874 438 0
-875 -441 0
875 441 0
-876 -444 0
876 444 0
-877 -447 0
877 447 0
-878 -450 0
878 450 0
-879 -453 0
879 453 0
-880 -456 0
880 456 0
-881 -459 0
881 459 0
-882 -462 0
882 462 0
-883 -465 0
883 465 0
-884 -468 0
884 468 0
-885 -471 0
885 471 0
-886 -474 0
886 474 0
-887 -477 0
887 477 0
-888 -480 0
888 480 0
-889 -483 0
889 483 0
-890 -486 0
890 486 0
-891 -488 0
891 488 0
-892 -491 0
892 491 0
-893 -494 0
893 494 0
-894 -497 0
894 497 0
-895 -500 0
895 500 0
-896 -503 0
896 503 0
-897 -48 0
897 48 0
-898 -506 0
898 506 0
-899 -508 0
899 508 0
-900 -511 0
900 511 0
-901 -514 0
901 514 0
-902 -517 0
902 517 0
-903 -520 0
903 520 0
-904 -523 0
904 523 0
-905 -526 0
905 526 0
-906 -529 0
906 529 0
-907 -532 0
907 532 0
-908 -535 0
908 535 0
-909 -538 0
909 538 0
-910 -541 0
910 541 0
-911 -544 0
911 544 0
-912 -547 0
912 547 0
-913 -550 0
913 550 0
-914 -553 0
914 553 0
-915 -556 0
915 556 0
-916 -558 0
916 558 0
-917 -561 0
917 561 0
-918 -564 0
918 564 0
-919 -567 0
919 567 0
-920 -570 0
920 570 0
-921 -573 0
921 573 0
-922 -576 0
922 576 0
-923 -579 0
923 579 0
-924 -582 0
924 582 0
-925 -585 0
925 585 0
-926 -588 0
926 588 0
-927 -591 0
927 591 0
-928 -594 0
928 594 0
-929 -597 0
929 597 0
-930 -600 0
930 600 0
-931 -603 0
931 603 0
-932 -606 0
932 606 0
-933 -609 0
933 609 0
-934 -612 0
934 612 0
-935 -615 0
935 615 0
-936 -618 0
936 618 0
-937 -621 0
937 621 0
-938 -623 0
938 623 0
-939 -626 0
939 626 0
-940 -629 0
940 629 0
-941 -632 0
941 632 0
-942 -635 0
942 635 0
-943 -638 0
943 638 0
-944 -641 0
944 641 0
-945 -644 0
945 644 0
-946 -647 0
946 647 0
-947 -649 0
947 649 0
-948 -652 0
948 652 0
-949 -655 0
949 655 0
-950 -658 0
950 658 0
-951 -661 0
951 661 0
-952 -664 0
952 664 0
-953 -666 0
953 666 0
-954 -669 0
954 669 0
-955 -672 0
955 672 0
-956 -675 0
956 675 0
-957 -678 0
957 678 0
-958 -681 0
958 681 0
-959 -684 0
959 684 0
-960 -687 0
960 687 0
-961 -690 0
961 690 0
-962 -693 0
962 693 0
694 0
